INPUT_PARAMETERS
#Parameters	(General)
suffix              autotest
pseudo_dir		../../PP_ORB
	
nbands			8
calculation             relax
#Parameters (Accuracy)
ecutwfc			50
scf_nmax			20
kpar  2
nspin 1

basis_type		pw
relax_nmax                   5
relax_new                    0

cal_stress                  1
stress_thr              1e-6
cal_force                   1
force_thr_ev            1.0e-3
smearing_method sigma
smearing_sigma 0.01

#ks_solver               scalapack_gvx
mixing_type         broyden
mixing_beta         0.4
mixing_gg0          1.0
