INPUT_PARAMETERS
# Created by Atomic Simulation Enviroment
suffix                                  abacus
calculation                             relax
relax_nmax                              50
nspin                                   2
nupdown                                 2
symmetry                                0
dft_functional                          PBE
basis_type                              pw
ecutwfc                                 100
scf_thr                                 1e-07
scf_nmax                                50
gamma_only                              True
smearing_method                         gauss
smearing_sigma                          0.01
mixing_type                             broyden
mixing_beta                             0.2
mixing_beta_mag                         0.8
mixing_gg0                              1.5
mixing_gg0_mag                          0
ks_solver                               dav
cal_force                               1
ntype                                   2
orbital_dir                             .
