ATOMIC_SPECIES
Si  28.085        Si.ccECP.upf
H   1.008         H.ccECP.upf

NUMERICAL_ORBITAL
Si_gga_7au_100Ry_2s2p1d.orb
H_gga_6au_100Ry_2s1p.orb

LATTICE_CONSTANT
1.8897261258369282

LATTICE_VECTORS
21.167088000      0.0000000000      0.0000000000      
0.0000000000      21.167088000      0.0000000000      
0.0000000000      0.0000000000      21.167088000      

ATOMIC_POSITIONS
Direct

Si
0.0000000000
1
0.5000000000 0.4999990000 0.5047030000 1 1 1 v 0.0 0.0 0.0 mag 0.0 

H
0.0000000000
2
0.5000000000 0.5610460000 0.4685160000 1 1 1 v 0.0 0.0 0.0 mag 0.0 
0.5000000000 0.4389560000 0.4685160000 1 1 1 v 0.0 0.0 0.0 mag 0.0 

